p cnf 288 1362
1 2 3 4 5 6 0
-1 -217 0
-1 -218 0
-1 -219 0
-2 217 0
-2 -218 0
-2 -219 0
-3 -217 0
-3 218 0
-3 -219 0
-4 217 0
-4 218 0
-4 -219 0
-5 -217 0
-5 -218 0
-5 219 0
-6 217 0
-6 -218 0
-6 219 0
-1 37 0
-1 7 0
-2 38 0
-2 8 0
-3 39 0
-3 9 0
-4 40 0
-4 10 0
-5 41 0
-5 11 0
-6 42 0
-6 12 0
7 8 9 10 11 12 0
-7 -220 0
-7 -221 0
-7 -222 0
-8 220 0
-8 -221 0
-8 -222 0
-9 -220 0
-9 221 0
-9 -222 0
-10 220 0
-10 221 0
-10 -222 0
-11 -220 0
-11 -221 0
-11 222 0
-12 220 0
-12 -221 0
-12 222 0
-7 1 13 0
-7 1 43 0
-7 13 43 0
-8 2 14 0
-8 2 44 0
-8 14 44 0
-9 3 15 0
-9 3 45 0
-9 15 45 0
-10 4 16 0
-10 4 46 0
-10 16 46 0
-11 5 17 0
-11 5 47 0
-11 17 47 0
-12 6 18 0
-12 6 48 0
-12 18 48 0
-7 -1 -13 -43 0
-8 -2 -14 -44 0
-9 -3 -15 -45 0
-10 -4 -16 -46 0
-11 -5 -17 -47 0
-12 -6 -18 -48 0
13 0
-14 0
-15 0
-16 0
-17 0
-18 0
7 19 49 0
-7 -19 0
-7 -49 0
-19 -49 0
20 0
-19 0
-21 0
-22 0
-23 0
-24 0
14 26 56 0
-14 -26 0
-14 -56 0
-26 -56 0
27 0
-25 0
-26 0
-28 0
-29 0
-30 0
21 33 63 0
-21 -33 0
-21 -63 0
-33 -63 0
31 32 33 34 35 36 0
-31 -223 0
-31 -224 0
-31 -225 0
-32 223 0
-32 -224 0
-32 -225 0
-33 -223 0
-33 224 0
-33 -225 0
-34 223 0
-34 224 0
-34 -225 0
-35 -223 0
-35 -224 0
-35 225 0
-36 223 0
-36 -224 0
-36 225 0
-31 67 0
-31 25 0
-32 68 0
-32 26 0
-33 69 0
-33 27 0
-34 70 0
-34 28 0
-35 71 0
-35 29 0
-36 72 0
-36 30 0
37 0
-38 0
-39 0
-40 0
-41 0
-42 0
73 43 1 0
-73 -43 0
-73 -1 0
-43 -1 0
48 0
-43 0
-44 0
-45 0
-46 0
-47 0
84 54 12 42 0
-84 -54 0
-84 -12 0
-84 -42 0
-54 -12 0
-54 -42 0
-12 -42 0
49 50 51 52 53 54 0
-49 -226 0
-49 -227 0
-49 -228 0
-50 226 0
-50 -227 0
-50 -228 0
-51 -226 0
-51 227 0
-51 -228 0
-52 226 0
-52 227 0
-52 -228 0
-53 -226 0
-53 -227 0
-53 228 0
-54 226 0
-54 -227 0
-54 228 0
-49 85 55 13 0
-49 85 55 43 0
-49 85 13 43 0
-49 55 13 43 0
-50 86 56 14 0
-50 86 56 44 0
-50 86 14 44 0
-50 56 14 44 0
-51 87 57 15 0
-51 87 57 45 0
-51 87 15 45 0
-51 57 15 45 0
-52 88 58 16 0
-52 88 58 46 0
-52 88 16 46 0
-52 58 16 46 0
-53 89 59 17 0
-53 89 59 47 0
-53 89 17 47 0
-53 59 17 47 0
-54 90 60 18 0
-54 90 60 48 0
-54 90 18 48 0
-54 60 18 48 0
-49 -85 -55 -13 0
-49 -85 -55 -43 0
-49 -85 -13 -43 0
-49 -55 -13 -43 0
-50 -86 -56 -14 0
-50 -86 -56 -44 0
-50 -86 -14 -44 0
-50 -56 -14 -44 0
-51 -87 -57 -15 0
-51 -87 -57 -45 0
-51 -87 -15 -45 0
-51 -57 -15 -45 0
-52 -88 -58 -16 0
-52 -88 -58 -46 0
-52 -88 -16 -46 0
-52 -58 -16 -46 0
-53 -89 -59 -17 0
-53 -89 -59 -47 0
-53 -89 -17 -47 0
-53 -59 -17 -47 0
-54 -90 -60 -18 0
-54 -90 -60 -48 0
-54 -90 -18 -48 0
-54 -60 -18 -48 0
55 56 57 58 59 60 0
-55 -229 0
-55 -230 0
-55 -231 0
-56 229 0
-56 -230 0
-56 -231 0
-57 -229 0
-57 230 0
-57 -231 0
-58 229 0
-58 230 0
-58 -231 0
-59 -229 0
-59 -230 0
-59 231 0
-60 229 0
-60 -230 0
-60 231 0
-55 91 61 19 0
-55 91 61 49 0
-55 91 19 49 0
-55 61 19 49 0
-56 92 62 20 0
-56 92 62 50 0
-56 92 20 50 0
-56 62 20 50 0
-57 93 63 21 0
-57 93 63 51 0
-57 93 21 51 0
-57 63 21 51 0
-58 94 64 22 0
-58 94 64 52 0
-58 94 22 52 0
-58 64 22 52 0
-59 95 65 23 0
-59 95 65 53 0
-59 95 23 53 0
-59 65 23 53 0
-60 96 66 24 0
-60 96 66 54 0
-60 96 24 54 0
-60 66 24 54 0
-55 -91 -61 -19 0
-55 -91 -61 -49 0
-55 -91 -19 -49 0
-55 -61 -19 -49 0
-56 -92 -62 -20 0
-56 -92 -62 -50 0
-56 -92 -20 -50 0
-56 -62 -20 -50 0
-57 -93 -63 -21 0
-57 -93 -63 -51 0
-57 -93 -21 -51 0
-57 -63 -21 -51 0
-58 -94 -64 -22 0
-58 -94 -64 -52 0
-58 -94 -22 -52 0
-58 -64 -22 -52 0
-59 -95 -65 -23 0
-59 -95 -65 -53 0
-59 -95 -23 -53 0
-59 -65 -23 -53 0
-60 -96 -66 -24 0
-60 -96 -66 -54 0
-60 -96 -24 -54 0
-60 -66 -24 -54 0
61 62 63 64 65 66 0
-61 -232 0
-61 -233 0
-61 -234 0
-62 232 0
-62 -233 0
-62 -234 0
-63 -232 0
-63 233 0
-63 -234 0
-64 232 0
-64 233 0
-64 -234 0
-65 -232 0
-65 -233 0
-65 234 0
-66 232 0
-66 -233 0
-66 234 0
-61 97 67 25 0
-61 97 67 55 0
-61 97 25 55 0
-61 67 25 55 0
-62 98 68 26 0
-62 98 68 56 0
-62 98 26 56 0
-62 68 26 56 0
-63 99 69 27 0
-63 99 69 57 0
-63 99 27 57 0
-63 69 27 57 0
-64 100 70 28 0
-64 100 70 58 0
-64 100 28 58 0
-64 70 28 58 0
-65 101 71 29 0
-65 101 71 59 0
-65 101 29 59 0
-65 71 29 59 0
-66 102 72 30 0
-66 102 72 60 0
-66 102 30 60 0
-66 72 30 60 0
-61 -97 -67 -25 0
-61 -97 -67 -55 0
-61 -97 -25 -55 0
-61 -67 -25 -55 0
-62 -98 -68 -26 0
-62 -98 -68 -56 0
-62 -98 -26 -56 0
-62 -68 -26 -56 0
-63 -99 -69 -27 0
-63 -99 -69 -57 0
-63 -99 -27 -57 0
-63 -69 -27 -57 0
-64 -100 -70 -28 0
-64 -100 -70 -58 0
-64 -100 -28 -58 0
-64 -70 -28 -58 0
-65 -101 -71 -29 0
-65 -101 -71 -59 0
-65 -101 -29 -59 0
-65 -71 -29 -59 0
-66 -102 -72 -30 0
-66 -102 -72 -60 0
-66 -102 -30 -60 0
-66 -72 -30 -60 0
67 68 69 70 71 72 0
-67 -235 0
-67 -236 0
-67 -237 0
-68 235 0
-68 -236 0
-68 -237 0
-69 -235 0
-69 236 0
-69 -237 0
-70 235 0
-70 236 0
-70 -237 0
-71 -235 0
-71 -236 0
-71 237 0
-72 235 0
-72 -236 0
-72 237 0
-67 103 61 0
-67 103 31 0
-67 61 31 0
-68 104 62 0
-68 104 32 0
-68 62 32 0
-69 105 63 0
-69 105 33 0
-69 63 33 0
-70 106 64 0
-70 106 34 0
-70 64 34 0
-71 107 65 0
-71 107 35 0
-71 65 35 0
-72 108 66 0
-72 108 36 0
-72 66 36 0
-67 -103 -61 -31 0
-68 -104 -62 -32 0
-69 -105 -63 -33 0
-70 -106 -64 -34 0
-71 -107 -65 -35 0
-72 -108 -66 -36 0
76 0
-73 0
-74 0
-75 0
-77 0
-78 0
112 82 40 0
-112 -82 0
-112 -40 0
-82 -40 0
79 80 81 82 83 84 0
-79 -238 0
-79 -239 0
-79 -240 0
-80 238 0
-80 -239 0
-80 -240 0
-81 -238 0
-81 239 0
-81 -240 0
-82 238 0
-82 239 0
-82 -240 0
-83 -238 0
-83 -239 0
-83 240 0
-84 238 0
-84 -239 0
-84 240 0
-79 115 85 43 0
-79 115 85 73 0
-79 115 43 73 0
-79 85 43 73 0
-80 116 86 44 0
-80 116 86 74 0
-80 116 44 74 0
-80 86 44 74 0
-81 117 87 45 0
-81 117 87 75 0
-81 117 45 75 0
-81 87 45 75 0
-82 118 88 46 0
-82 118 88 76 0
-82 118 46 76 0
-82 88 46 76 0
-83 119 89 47 0
-83 119 89 77 0
-83 119 47 77 0
-83 89 47 77 0
-84 120 90 48 0
-84 120 90 78 0
-84 120 48 78 0
-84 90 48 78 0
-79 -115 -85 -43 0
-79 -115 -85 -73 0
-79 -115 -43 -73 0
-79 -85 -43 -73 0
-80 -116 -86 -44 0
-80 -116 -86 -74 0
-80 -116 -44 -74 0
-80 -86 -44 -74 0
-81 -117 -87 -45 0
-81 -117 -87 -75 0
-81 -117 -45 -75 0
-81 -87 -45 -75 0
-82 -118 -88 -46 0
-82 -118 -88 -76 0
-82 -118 -46 -76 0
-82 -88 -46 -76 0
-83 -119 -89 -47 0
-83 -119 -89 -77 0
-83 -119 -47 -77 0
-83 -89 -47 -77 0
-84 -120 -90 -48 0
-84 -120 -90 -78 0
-84 -120 -48 -78 0
-84 -90 -48 -78 0
90 0
-85 0
-86 0
-87 0
-88 0
-89 0
126 96 54 84 0
-126 -96 0
-126 -54 0
-126 -84 0
-96 -54 0
-96 -84 0
-54 -84 0
95 0
-91 0
-92 0
-93 0
-94 0
-96 0
131 101 59 89 0
-131 -101 0
-131 -59 0
-131 -89 0
-101 -59 0
-101 -89 0
-59 -89 0
97 98 99 100 101 102 0
-97 -241 0
-97 -242 0
-97 -243 0
-98 241 0
-98 -242 0
-98 -243 0
-99 -241 0
-99 242 0
-99 -243 0
-100 241 0
-100 242 0
-100 -243 0
-101 -241 0
-101 -242 0
-101 243 0
-102 241 0
-102 -242 0
-102 243 0
-97 133 103 61 0
-97 133 103 91 0
-97 133 61 91 0
-97 103 61 91 0
-98 134 104 62 0
-98 134 104 92 0
-98 134 62 92 0
-98 104 62 92 0
-99 135 105 63 0
-99 135 105 93 0
-99 135 63 93 0
-99 105 63 93 0
-100 136 106 64 0
-100 136 106 94 0
-100 136 64 94 0
-100 106 64 94 0
-101 137 107 65 0
-101 137 107 95 0
-101 137 65 95 0
-101 107 65 95 0
-102 138 108 66 0
-102 138 108 96 0
-102 138 66 96 0
-102 108 66 96 0
-97 -133 -103 -61 0
-97 -133 -103 -91 0
-97 -133 -61 -91 0
-97 -103 -61 -91 0
-98 -134 -104 -62 0
-98 -134 -104 -92 0
-98 -134 -62 -92 0
-98 -104 -62 -92 0
-99 -135 -105 -63 0
-99 -135 -105 -93 0
-99 -135 -63 -93 0
-99 -105 -63 -93 0
-100 -136 -106 -64 0
-100 -136 -106 -94 0
-100 -136 -64 -94 0
-100 -106 -64 -94 0
-101 -137 -107 -65 0
-101 -137 -107 -95 0
-101 -137 -65 -95 0
-101 -107 -65 -95 0
-102 -138 -108 -66 0
-102 -138 -108 -96 0
-102 -138 -66 -96 0
-102 -108 -66 -96 0
103 104 105 106 107 108 0
-103 -244 0
-103 -245 0
-103 -246 0
-104 244 0
-104 -245 0
-104 -246 0
-105 -244 0
-105 245 0
-105 -246 0
-106 244 0
-106 245 0
-106 -246 0
-107 -244 0
-107 -245 0
-107 246 0
-108 244 0
-108 -245 0
-108 246 0
-103 139 97 0
-103 139 67 0
-103 97 67 0
-104 140 98 0
-104 140 68 0
-104 98 68 0
-105 141 99 0
-105 141 69 0
-105 99 69 0
-106 142 100 0
-106 142 70 0
-106 100 70 0
-107 143 101 0
-107 143 71 0
-107 101 71 0
-108 144 102 0
-108 144 72 0
-108 102 72 0
-103 -139 -97 -67 0
-104 -140 -98 -68 0
-105 -141 -99 -69 0
-106 -142 -100 -70 0
-107 -143 -101 -71 0
-108 -144 -102 -72 0
111 0
-109 0
-110 0
-112 0
-113 0
-114 0
147 117 75 0
-147 -117 0
-147 -75 0
-117 -75 0
115 116 117 118 119 120 0
-115 -247 0
-115 -248 0
-115 -249 0
-116 247 0
-116 -248 0
-116 -249 0
-117 -247 0
-117 248 0
-117 -249 0
-118 247 0
-118 248 0
-118 -249 0
-119 -247 0
-119 -248 0
-119 249 0
-120 247 0
-120 -248 0
-120 249 0
-115 151 121 79 0
-115 151 121 109 0
-115 151 79 109 0
-115 121 79 109 0
-116 152 122 80 0
-116 152 122 110 0
-116 152 80 110 0
-116 122 80 110 0
-117 153 123 81 0
-117 153 123 111 0
-117 153 81 111 0
-117 123 81 111 0
-118 154 124 82 0
-118 154 124 112 0
-118 154 82 112 0
-118 124 82 112 0
-119 155 125 83 0
-119 155 125 113 0
-119 155 83 113 0
-119 125 83 113 0
-120 156 126 84 0
-120 156 126 114 0
-120 156 84 114 0
-120 126 84 114 0
-115 -151 -121 -79 0
-115 -151 -121 -109 0
-115 -151 -79 -109 0
-115 -121 -79 -109 0
-116 -152 -122 -80 0
-116 -152 -122 -110 0
-116 -152 -80 -110 0
-116 -122 -80 -110 0
-117 -153 -123 -81 0
-117 -153 -123 -111 0
-117 -153 -81 -111 0
-117 -123 -81 -111 0
-118 -154 -124 -82 0
-118 -154 -124 -112 0
-118 -154 -82 -112 0
-118 -124 -82 -112 0
-119 -155 -125 -83 0
-119 -155 -125 -113 0
-119 -155 -83 -113 0
-119 -125 -83 -113 0
-120 -156 -126 -84 0
-120 -156 -126 -114 0
-120 -156 -84 -114 0
-120 -126 -84 -114 0
125 0
-121 0
-122 0
-123 0
-124 0
-126 0
161 131 89 119 0
-161 -131 0
-161 -89 0
-161 -119 0
-131 -89 0
-131 -119 0
-89 -119 0
127 128 129 130 131 132 0
-127 -250 0
-127 -251 0
-127 -252 0
-128 250 0
-128 -251 0
-128 -252 0
-129 -250 0
-129 251 0
-129 -252 0
-130 250 0
-130 251 0
-130 -252 0
-131 -250 0
-131 -251 0
-131 252 0
-132 250 0
-132 -251 0
-132 252 0
-127 163 133 91 0
-127 163 133 121 0
-127 163 91 121 0
-127 133 91 121 0
-128 164 134 92 0
-128 164 134 122 0
-128 164 92 122 0
-128 134 92 122 0
-129 165 135 93 0
-129 165 135 123 0
-129 165 93 123 0
-129 135 93 123 0
-130 166 136 94 0
-130 166 136 124 0
-130 166 94 124 0
-130 136 94 124 0
-131 167 137 95 0
-131 167 137 125 0
-131 167 95 125 0
-131 137 95 125 0
-132 168 138 96 0
-132 168 138 126 0
-132 168 96 126 0
-132 138 96 126 0
-127 -163 -133 -91 0
-127 -163 -133 -121 0
-127 -163 -91 -121 0
-127 -133 -91 -121 0
-128 -164 -134 -92 0
-128 -164 -134 -122 0
-128 -164 -92 -122 0
-128 -134 -92 -122 0
-129 -165 -135 -93 0
-129 -165 -135 -123 0
-129 -165 -93 -123 0
-129 -135 -93 -123 0
-130 -166 -136 -94 0
-130 -166 -136 -124 0
-130 -166 -94 -124 0
-130 -136 -94 -124 0
-131 -167 -137 -95 0
-131 -167 -137 -125 0
-131 -167 -95 -125 0
-131 -137 -95 -125 0
-132 -168 -138 -96 0
-132 -168 -138 -126 0
-132 -168 -96 -126 0
-132 -138 -96 -126 0
133 134 135 136 137 138 0
-133 -253 0
-133 -254 0
-133 -255 0
-134 253 0
-134 -254 0
-134 -255 0
-135 -253 0
-135 254 0
-135 -255 0
-136 253 0
-136 254 0
-136 -255 0
-137 -253 0
-137 -254 0
-137 255 0
-138 253 0
-138 -254 0
-138 255 0
-133 169 139 97 0
-133 169 139 127 0
-133 169 97 127 0
-133 139 97 127 0
-134 170 140 98 0
-134 170 140 128 0
-134 170 98 128 0
-134 140 98 128 0
-135 171 141 99 0
-135 171 141 129 0
-135 171 99 129 0
-135 141 99 129 0
-136 172 142 100 0
-136 172 142 130 0
-136 172 100 130 0
-136 142 100 130 0
-137 173 143 101 0
-137 173 143 131 0
-137 173 101 131 0
-137 143 101 131 0
-138 174 144 102 0
-138 174 144 132 0
-138 174 102 132 0
-138 144 102 132 0
-133 -169 -139 -97 0
-133 -169 -139 -127 0
-133 -169 -97 -127 0
-133 -139 -97 -127 0
-134 -170 -140 -98 0
-134 -170 -140 -128 0
-134 -170 -98 -128 0
-134 -140 -98 -128 0
-135 -171 -141 -99 0
-135 -171 -141 -129 0
-135 -171 -99 -129 0
-135 -141 -99 -129 0
-136 -172 -142 -100 0
-136 -172 -142 -130 0
-136 -172 -100 -130 0
-136 -142 -100 -130 0
-137 -173 -143 -101 0
-137 -173 -143 -131 0
-137 -173 -101 -131 0
-137 -143 -101 -131 0
-138 -174 -144 -102 0
-138 -174 -144 -132 0
-138 -174 -102 -132 0
-138 -144 -102 -132 0
139 140 141 142 143 144 0
-139 -256 0
-139 -257 0
-139 -258 0
-140 256 0
-140 -257 0
-140 -258 0
-141 -256 0
-141 257 0
-141 -258 0
-142 256 0
-142 257 0
-142 -258 0
-143 -256 0
-143 -257 0
-143 258 0
-144 256 0
-144 -257 0
-144 258 0
-139 175 133 0
-139 175 103 0
-139 133 103 0
-140 176 134 0
-140 176 104 0
-140 134 104 0
-141 177 135 0
-141 177 105 0
-141 135 105 0
-142 178 136 0
-142 178 106 0
-142 136 106 0
-143 179 137 0
-143 179 107 0
-143 137 107 0
-144 180 138 0
-144 180 108 0
-144 138 108 0
-139 -175 -133 -103 0
-140 -176 -134 -104 0
-141 -177 -135 -105 0
-142 -178 -136 -106 0
-143 -179 -137 -107 0
-144 -180 -138 -108 0
145 146 147 148 149 150 0
-145 -259 0
-145 -260 0
-145 -261 0
-146 259 0
-146 -260 0
-146 -261 0
-147 -259 0
-147 260 0
-147 -261 0
-148 259 0
-148 260 0
-148 -261 0
-149 -259 0
-149 -260 0
-149 261 0
-150 259 0
-150 -260 0
-150 261 0
-145 181 151 0
-145 181 109 0
-145 151 109 0
-146 182 152 0
-146 182 110 0
-146 152 110 0
-147 183 153 0
-147 183 111 0
-147 153 111 0
-148 184 154 0
-148 184 112 0
-148 154 112 0
-149 185 155 0
-149 185 113 0
-149 155 113 0
-150 186 156 0
-150 186 114 0
-150 156 114 0
-145 -181 -151 -109 0
-146 -182 -152 -110 0
-147 -183 -153 -111 0
-148 -184 -154 -112 0
-149 -185 -155 -113 0
-150 -186 -156 -114 0
151 152 153 154 155 156 0
-151 -262 0
-151 -263 0
-151 -264 0
-152 262 0
-152 -263 0
-152 -264 0
-153 -262 0
-153 263 0
-153 -264 0
-154 262 0
-154 263 0
-154 -264 0
-155 -262 0
-155 -263 0
-155 264 0
-156 262 0
-156 -263 0
-156 264 0
-151 187 157 115 0
-151 187 157 145 0
-151 187 115 145 0
-151 157 115 145 0
-152 188 158 116 0
-152 188 158 146 0
-152 188 116 146 0
-152 158 116 146 0
-153 189 159 117 0
-153 189 159 147 0
-153 189 117 147 0
-153 159 117 147 0
-154 190 160 118 0
-154 190 160 148 0
-154 190 118 148 0
-154 160 118 148 0
-155 191 161 119 0
-155 191 161 149 0
-155 191 119 149 0
-155 161 119 149 0
-156 192 162 120 0
-156 192 162 150 0
-156 192 120 150 0
-156 162 120 150 0
-151 -187 -157 -115 0
-151 -187 -157 -145 0
-151 -187 -115 -145 0
-151 -157 -115 -145 0
-152 -188 -158 -116 0
-152 -188 -158 -146 0
-152 -188 -116 -146 0
-152 -158 -116 -146 0
-153 -189 -159 -117 0
-153 -189 -159 -147 0
-153 -189 -117 -147 0
-153 -159 -117 -147 0
-154 -190 -160 -118 0
-154 -190 -160 -148 0
-154 -190 -118 -148 0
-154 -160 -118 -148 0
-155 -191 -161 -119 0
-155 -191 -161 -149 0
-155 -191 -119 -149 0
-155 -161 -119 -149 0
-156 -192 -162 -120 0
-156 -192 -162 -150 0
-156 -192 -120 -150 0
-156 -162 -120 -150 0
157 158 159 160 161 162 0
-157 -265 0
-157 -266 0
-157 -267 0
-158 265 0
-158 -266 0
-158 -267 0
-159 -265 0
-159 266 0
-159 -267 0
-160 265 0
-160 266 0
-160 -267 0
-161 -265 0
-161 -266 0
-161 267 0
-162 265 0
-162 -266 0
-162 267 0
-157 193 163 121 0
-157 193 163 151 0
-157 193 121 151 0
-157 163 121 151 0
-158 194 164 122 0
-158 194 164 152 0
-158 194 122 152 0
-158 164 122 152 0
-159 195 165 123 0
-159 195 165 153 0
-159 195 123 153 0
-159 165 123 153 0
-160 196 166 124 0
-160 196 166 154 0
-160 196 124 154 0
-160 166 124 154 0
-161 197 167 125 0
-161 197 167 155 0
-161 197 125 155 0
-161 167 125 155 0
-162 198 168 126 0
-162 198 168 156 0
-162 198 126 156 0
-162 168 126 156 0
-157 -193 -163 -121 0
-157 -193 -163 -151 0
-157 -193 -121 -151 0
-157 -163 -121 -151 0
-158 -194 -164 -122 0
-158 -194 -164 -152 0
-158 -194 -122 -152 0
-158 -164 -122 -152 0
-159 -195 -165 -123 0
-159 -195 -165 -153 0
-159 -195 -123 -153 0
-159 -165 -123 -153 0
-160 -196 -166 -124 0
-160 -196 -166 -154 0
-160 -196 -124 -154 0
-160 -166 -124 -154 0
-161 -197 -167 -125 0
-161 -197 -167 -155 0
-161 -197 -125 -155 0
-161 -167 -125 -155 0
-162 -198 -168 -126 0
-162 -198 -168 -156 0
-162 -198 -126 -156 0
-162 -168 -126 -156 0
166 0
-163 0
-164 0
-165 0
-167 0
-168 0
202 172 130 160 0
-202 -172 0
-202 -130 0
-202 -160 0
-172 -130 0
-172 -160 0
-130 -160 0
170 0
-169 0
-171 0
-172 0
-173 0
-174 0
206 176 134 164 0
-206 -176 0
-206 -134 0
-206 -164 0
-176 -134 0
-176 -164 0
-134 -164 0
175 176 177 178 179 180 0
-175 -268 0
-175 -269 0
-175 -270 0
-176 268 0
-176 -269 0
-176 -270 0
-177 -268 0
-177 269 0
-177 -270 0
-178 268 0
-178 269 0
-178 -270 0
-179 -268 0
-179 -269 0
-179 270 0
-180 268 0
-180 -269 0
-180 270 0
-175 211 169 0
-175 211 139 0
-175 169 139 0
-176 212 170 0
-176 212 140 0
-176 170 140 0
-177 213 171 0
-177 213 141 0
-177 171 141 0
-178 214 172 0
-178 214 142 0
-178 172 142 0
-179 215 173 0
-179 215 143 0
-179 173 143 0
-180 216 174 0
-180 216 144 0
-180 174 144 0
-175 -211 -169 -139 0
-176 -212 -170 -140 0
-177 -213 -171 -141 0
-178 -214 -172 -142 0
-179 -215 -173 -143 0
-180 -216 -174 -144 0
181 182 183 184 185 186 0
-181 -271 0
-181 -272 0
-181 -273 0
-182 271 0
-182 -272 0
-182 -273 0
-183 -271 0
-183 272 0
-183 -273 0
-184 271 0
-184 272 0
-184 -273 0
-185 -271 0
-185 -272 0
-185 273 0
-186 271 0
-186 -272 0
-186 273 0
-181 145 0
-181 187 0
-182 146 0
-182 188 0
-183 147 0
-183 189 0
-184 148 0
-184 190 0
-185 149 0
-185 191 0
-186 150 0
-186 192 0
187 188 189 190 191 192 0
-187 -274 0
-187 -275 0
-187 -276 0
-188 274 0
-188 -275 0
-188 -276 0
-189 -274 0
-189 275 0
-189 -276 0
-190 274 0
-190 275 0
-190 -276 0
-191 -274 0
-191 -275 0
-191 276 0
-192 274 0
-192 -275 0
-192 276 0
-187 151 193 0
-187 151 181 0
-187 193 181 0
-188 152 194 0
-188 152 182 0
-188 194 182 0
-189 153 195 0
-189 153 183 0
-189 195 183 0
-190 154 196 0
-190 154 184 0
-190 196 184 0
-191 155 197 0
-191 155 185 0
-191 197 185 0
-192 156 198 0
-192 156 186 0
-192 198 186 0
-187 -151 -193 -181 0
-188 -152 -194 -182 0
-189 -153 -195 -183 0
-190 -154 -196 -184 0
-191 -155 -197 -185 0
-192 -156 -198 -186 0
193 194 195 196 197 198 0
-193 -277 0
-193 -278 0
-193 -279 0
-194 277 0
-194 -278 0
-194 -279 0
-195 -277 0
-195 278 0
-195 -279 0
-196 277 0
-196 278 0
-196 -279 0
-197 -277 0
-197 -278 0
-197 279 0
-198 277 0
-198 -278 0
-198 279 0
-193 157 199 0
-193 157 187 0
-193 199 187 0
-194 158 200 0
-194 158 188 0
-194 200 188 0
-195 159 201 0
-195 159 189 0
-195 201 189 0
-196 160 202 0
-196 160 190 0
-196 202 190 0
-197 161 203 0
-197 161 191 0
-197 203 191 0
-198 162 204 0
-198 162 192 0
-198 204 192 0
-193 -157 -199 -187 0
-194 -158 -200 -188 0
-195 -159 -201 -189 0
-196 -160 -202 -190 0
-197 -161 -203 -191 0
-198 -162 -204 -192 0
199 200 201 202 203 204 0
-199 -280 0
-199 -281 0
-199 -282 0
-200 280 0
-200 -281 0
-200 -282 0
-201 -280 0
-201 281 0
-201 -282 0
-202 280 0
-202 281 0
-202 -282 0
-203 -280 0
-203 -281 0
-203 282 0
-204 280 0
-204 -281 0
-204 282 0
-199 163 205 0
-199 163 193 0
-199 205 193 0
-200 164 206 0
-200 164 194 0
-200 206 194 0
-201 165 207 0
-201 165 195 0
-201 207 195 0
-202 166 208 0
-202 166 196 0
-202 208 196 0
-203 167 209 0
-203 167 197 0
-203 209 197 0
-204 168 210 0
-204 168 198 0
-204 210 198 0
-199 -163 -205 -193 0
-200 -164 -206 -194 0
-201 -165 -207 -195 0
-202 -166 -208 -196 0
-203 -167 -209 -197 0
-204 -168 -210 -198 0
205 206 207 208 209 210 0
-205 -283 0
-205 -284 0
-205 -285 0
-206 283 0
-206 -284 0
-206 -285 0
-207 -283 0
-207 284 0
-207 -285 0
-208 283 0
-208 284 0
-208 -285 0
-209 -283 0
-209 -284 0
-209 285 0
-210 283 0
-210 -284 0
-210 285 0
-205 169 211 0
-205 169 199 0
-205 211 199 0
-206 170 212 0
-206 170 200 0
-206 212 200 0
-207 171 213 0
-207 171 201 0
-207 213 201 0
-208 172 214 0
-208 172 202 0
-208 214 202 0
-209 173 215 0
-209 173 203 0
-209 215 203 0
-210 174 216 0
-210 174 204 0
-210 216 204 0
-205 -169 -211 -199 0
-206 -170 -212 -200 0
-207 -171 -213 -201 0
-208 -172 -214 -202 0
-209 -173 -215 -203 0
-210 -174 -216 -204 0
211 212 213 214 215 216 0
-211 -286 0
-211 -287 0
-211 -288 0
-212 286 0
-212 -287 0
-212 -288 0
-213 -286 0
-213 287 0
-213 -288 0
-214 286 0
-214 287 0
-214 -288 0
-215 -286 0
-215 -287 0
-215 288 0
-216 286 0
-216 -287 0
-216 288 0
-211 175 0
-211 205 0
-212 176 0
-212 206 0
-213 177 0
-213 207 0
-214 178 0
-214 208 0
-215 179 0
-215 209 0
-216 180 0
-216 210 0